letting n =  10
letting blocks =  [[1, 1], [1, 2], [1, 3], [1, 5], [1, 6], [1, 9], [2, 2], [2, 5], [2, 7], [2, 9], [2, 10], [3, 1], [3, 2], [3, 5], [3, 6], [3, 7], [4, 1], [4, 3], [4, 4], [4, 6], [4, 7], [4, 9], [5, 1], [5, 2], [5, 3], [5, 6], [5, 7], [5, 8], [6, 1], [6, 4], [6, 5], [6, 8], [6, 9], [6, 10], [7, 3], [7, 7], [7, 8], [7, 9], [7, 10], [8, 1], [8, 3], [8, 4], [8, 5], [8, 7], [8, 8], [9, 2], [9, 5], [9, 8], [9, 10], [10, 2], [10, 6], [10, 8], [10, 9], [10, 10]]
